
Gurobi 10.0.1 (linux64) logging started Sun Nov 26 15:37:33 2023

Set parameter LogFile to value "ArtificialInstance/ExperimentV2/S3T3K2/AdSp/gurobiDoSp1.txt"
Gurobi Optimizer version 10.0.1 build v10.0.1rc0 (linux64)

CPU model: AMD EPYC 7H12 64-Core Processor, instruction set [SSE2|AVX|AVX2]
Thread count: 128 physical cores, 128 logical processors, using up to 32 threads

Academic license 656792 - for non-commercial use only - registered to b.___@student.vu.nl
Optimize a model with 6864 rows, 6732 columns and 25504 nonzeros
Model fingerprint: 0x1bf2bd2d
Variable types: 0 continuous, 6732 integer (6732 binary)
Coefficient statistics:
  Matrix range     [1e+00, 1e+00]
  Objective range  [1e+00, 2e+01]
  Bounds range     [1e+00, 1e+00]
  RHS range        [1e+00, 1e+00]
Presolve removed 5440 rows and 5334 columns
Presolve time: 0.10s
Presolved: 1424 rows, 1398 columns, 5498 nonzeros
Variable types: 0 continuous, 1398 integer (1398 binary)
Found heuristic solution: objective 116.1763970

Root relaxation: objective 5.985179e+01, 410 iterations, 0.01 seconds (0.00 work units)

    Nodes    |    Current Node    |     Objective Bounds      |     Work
 Expl Unexpl |  Obj  Depth IntInf | Incumbent    BestBd   Gap | It/Node Time

*    0     0               0      59.8517865   59.85179  0.00%     -    0s

Explored 1 nodes (410 simplex iterations) in 0.13 seconds (0.08 work units)
Thread count was 32 (of 128 available processors)

Solution count 2: 59.8518 116.176 

Optimal solution found (tolerance 1.00e-04)
Best objective 5.985178654647e+01, best bound 5.985178654647e+01, gap 0.0000%
